HUN,8,6,204
1,22,0,25,5,16,3,1,4,17,2,30
0,21,4,1,2,18,1,26,5,14,3,5
4,23,2,4,1,7,3,25,5,19,0,1
3,3,5,11,2,28,0,26,1,18,4,3
3,26,1,29,4,4,5,28,2,12,0,12
5,4,0,13,4,23,1,10,2,26,3,30
0,26,4,18,1,9,3,21,5,6,2,13
4,28,0,7,3,15,5,7,1,10,2,7
